(set-info :smt-lib-version 2.6)
(set-logic QF_FPBV)
(set-option :produce-models true)
(set-info :source |Random FP created by PyMPF|)
(set-info :license |https://www.gnu.org/licenses/gpl-3.0.html|)
(set-info :category random)
(set-info :status sat)
;; fp.from.sbv(BitVec 32)
(declare-const x (_ BitVec 32))
(assert (bvsle x #b01111100101010110111011110101100))
;; x should be 2091612076

(declare-const r Float16)
(assert (= r ((_ to_fp 5 11) RNA x)))
(assert (fp.leq r ((_ to_fp 5 11) #x7C00)))
(check-sat)
(exit)
